tsp_instances/TSP50/instance79.tsp
NODE_COORD_SECTION
0 118 7
1 12 23
2 148 130
3 52 4
4 30 137
5 106 51
6 169 107
7 146 21
8 132 37
9 105 58
10 192 65
11 79 53
12 83 151
13 105 117
14 39 130
15 155 195
16 63 132
17 99 137
18 101 91
19 174 69
20 8 94
21 26 139
22 70 87
23 34 61
24 137 14
25 25 8
26 70 30
27 144 135
28 37 57
29 31 131
30 194 102
31 189 149
32 190 182
33 39 164
34 146 56
35 52 120
36 26 185
37 120 181
38 18 25
39 186 81
40 191 56
41 148 98
42 117 123
43 47 146
44 82 12
45 101 177
46 143 169
47 29 146
48 107 108
49 1 10
