tsp_instances/TSP50/instance79.opt.tour
TOUR_SECTION
1
6
10
12
27
45
4
26
50
2
39
29
24
21
15
30
5
22
48
37
34
44
17
36
23
19
49
14
43
18
13
46
38
47
16
33
32
28
3
42
7
31
40
11
41
20
35
9
8
25
-1